\ LP format - for model browsing. Use MPS format to capture full model detail.
Maximize
  h[0] + 2 h[1] + 3 h[2] + 3 h[3] - 3 Constant
Subject To
 R0: h[0] + h[1] + h[2] + h[3] <= 5
Bounds
 Constant = 1
Generals
 h[0] h[1] h[2] h[3]
End
